Li Sc  F                                
   1.00000000000000     
     6.3132026127299996   -0.0000129824151174   -0.0223453272811000
    -0.0000075462453492    4.1292663457399996    0.0000034182060174
    -2.7406197637199998    0.0000108903819355    5.6873793169000004
   Li   Sc   F 
     1     2     7
Direct
  0.4999999954282472  0.9384246585501472  0.0000000276026242
  0.8080853243174104  0.9394131941915447  0.6919104709239718
  0.1919146215246741  0.9394140852184520  0.3080895235007830
  0.4562798476636942  0.9392184408689559  0.6712714826069259
  0.5437201593557432  0.9392221744572637  0.3287285205714667
  0.8287391622622238  0.9391846584373553  0.0437279757385198
  0.1712608707315084  0.9391889130002653  0.9562720352913416
  0.8023810588653220  0.4394131513498536  0.6975837883901619
  0.1976189325067992  0.4394135229590859  0.3024161933284830
  0.0000000273443632  0.9399072009670988  0.4999999820457433
 
  0.00000000E+00  0.00000000E+00  0.00000000E+00
  0.00000000E+00  0.00000000E+00  0.00000000E+00
  0.00000000E+00  0.00000000E+00  0.00000000E+00
  0.00000000E+00  0.00000000E+00  0.00000000E+00
  0.00000000E+00  0.00000000E+00  0.00000000E+00
  0.00000000E+00  0.00000000E+00  0.00000000E+00
  0.00000000E+00  0.00000000E+00  0.00000000E+00
  0.00000000E+00  0.00000000E+00  0.00000000E+00
  0.00000000E+00  0.00000000E+00  0.00000000E+00
  0.00000000E+00  0.00000000E+00  0.00000000E+00
